User:   austin@Austins-MacBook-Pro-81.local
Date:   Sat May  6 11:06:28 2023
Arch:   arm64
Pid:    56938
CWD:    /Users/austin/Desktop/dft_class/final_project
Python: 3.8.16
gpaw:   /Users/austin/tensorflow_env/env/lib/python3.8/site-packages/gpaw
_gpaw:  /Users/austin/tensorflow_env/env/lib/python3.8/site-packages/
        _gpaw.cpython-38-darwin.so
ase:    /Users/austin/tensorflow_env/env/lib/python3.8/site-packages/ase (version 3.22.1)
numpy:  /Users/austin/tensorflow_env/env/lib/python3.8/site-packages/numpy (version 1.23.2)
scipy:  /Users/austin/tensorflow_env/env/lib/python3.8/site-packages/scipy (version 1.9.1)
units:  Angstrom and eV
cores: 1
OpenMP: False
OMP_NUM_THREADS: 1

Input parameters:
  h: 0.2
  nbands: -30
  setups: {C: hch1s}

System changes: positions, numbers, cell, pbc, initial_charges, initial_magmoms

Initialize ...

species:
  C:  # (0.5 core hole)
    name: Carbon
    id: be8360b5b4bf2f97354f534adc6386b0
    Z: 6.0
    valence: 4
    core: 1.5
    charge: 0.5
    file: ./C.hch1s.LDA
    compensation charges: {type: gauss,
                           rc: 0.20,
                           lmax: 2}
    cutoffs: {filter: 1.14,
              core: 1.08}
    valence states:
      #              energy  rcut
      - 2s(2.00)   -20.949   0.635
      - 2p(2.00)   -12.509   0.635
      -  s           6.263   0.635
      -  p          14.702   0.635
      -  d           0.000   0.635

    # Using partial waves for C as LCAO basis

Reference energy: -56055.422770  # eV

Spin-paired calculation

Convergence criteria:
 Maximum [total energy] change in last 3 cyles: 0.0005 eV / electron
 Maximum integral of absolute [dens]ity change: 0.0001 electrons / valence electron
 Maximum integral of absolute [eigenst]ate change: 4e-08 eV^2 / valence electron
 Maximum number of scf [iter]ations: 333
 (Square brackets indicate name in SCF output, whereas a 'c' in
 the SCF output indicates the quantity has converged.)

Symmetries present (total): 4

  ( 1  0  0)  ( 1  0  0)  (-1  0  0)  (-1  0  0)
  ( 0  1  0)  ( 0  1  0)  ( 0  1  0)  ( 0  1  0)
  ( 0  0  1)  ( 0  0 -1)  ( 0  0  1)  ( 0  0 -1)

1 k-point (Gamma)
1 k-point in the irreducible part of the Brillouin zone
       k-points in crystal coordinates                weights
   0:     0.00000000    0.00000000    0.00000000          1/1

Occupation numbers: Fermi-Dirac:
  width: 0.1000  # eV

Eigensolver
   Davidson(niter=2)

Densities:
  Coarse grid: 48*84*48 grid
  Fine grid: 96*168*96 grid
  Total Charge: 32.000000

Density mixing:
  Method: separate
  Backend: pulay
  Linear mixing parameter: 0.05
  old densities: 5
  Damping of long wavelength oscillations: 50

Hamiltonian:
  XC and Coulomb potentials evaluated on a 96*168*96 grid
  Using the LDA Exchange-Correlation functional
  Interpolation: tri-quintic (5. degree polynomial)
  Poisson solver: FastPoissonSolver using
    Stencil: 6*3+1=19 point O(h^6) finite-difference Laplacian
    FFT axes: [0, 1, 2]
    FST axes: []

Total number of cores used: 1

Number of atoms: 64
Number of atomic orbitals: 256
Number of bands in calculation: 158
Number of valence electrons: 256
Bands to converge: occupied

... initialized

Initializing position-dependent things.

Density initialized from atomic densities
Creating initial wave functions:
  158 bands from LCAO basis set

     /     |  C     C     C     C  |
    /      | C     C     C     C   |
   /     C |   C     C     C       |
  /        C     C     C     C     |
 *     C  C| C  C  C  C  C  C      |
 |    C  C |C  C  C  C  C  C       |
 |      C  .--C-----C-----C--------.
 |  C     C     C     C           /
 |  C C  C  C  C  C   C C        /
 |C  C  C  C  C  C  C  C        /
 C     C     C     C           /

Positions:
   0 C      0.000000    0.000000    5.000000    ( 0.0000,  0.0000,  0.0000)
   1 C      0.000000    1.408735    5.000000    ( 0.0000,  0.0000,  0.0000)
   2 C      1.220000    2.113102    5.000000    ( 0.0000,  0.0000,  0.0000)
   3 C      1.220000    3.521837    5.000000    ( 0.0000,  0.0000,  0.0000)
   4 C      0.000000    4.226204    5.000000    ( 0.0000,  0.0000,  0.0000)
   5 C      0.000000    5.634939    5.000000    ( 0.0000,  0.0000,  0.0000)
   6 C      1.220000    6.339306    5.000000    ( 0.0000,  0.0000,  0.0000)
   7 C      1.220000    7.748041    5.000000    ( 0.0000,  0.0000,  0.0000)
   8 C      0.000000    8.452408    5.000000    ( 0.0000,  0.0000,  0.0000)
   9 C      0.000000    9.861143    5.000000    ( 0.0000,  0.0000,  0.0000)
  10 C      1.220000   10.565510    5.000000    ( 0.0000,  0.0000,  0.0000)
  11 C      1.220000   11.974245    5.000000    ( 0.0000,  0.0000,  0.0000)
  12 C      0.000000   12.678612    5.000000    ( 0.0000,  0.0000,  0.0000)
  13 C      0.000000   14.087347    5.000000    ( 0.0000,  0.0000,  0.0000)
  14 C      1.220000   14.791714    5.000000    ( 0.0000,  0.0000,  0.0000)
  15 C      1.220000   16.200449    5.000000    ( 0.0000,  0.0000,  0.0000)
  16 C      2.440000    0.000000    5.000000    ( 0.0000,  0.0000,  0.0000)
  17 C      2.440000    1.408735    5.000000    ( 0.0000,  0.0000,  0.0000)
  18 C      3.660000    2.113102    5.000000    ( 0.0000,  0.0000,  0.0000)
  19 C      3.660000    3.521837    5.000000    ( 0.0000,  0.0000,  0.0000)
  20 C      2.440000    4.226204    5.000000    ( 0.0000,  0.0000,  0.0000)
  21 C      2.440000    5.634939    5.000000    ( 0.0000,  0.0000,  0.0000)
  22 C      3.660000    6.339306    5.000000    ( 0.0000,  0.0000,  0.0000)
  23 C      3.660000    7.748041    5.000000    ( 0.0000,  0.0000,  0.0000)
  24 C      2.440000    8.452408    5.000000    ( 0.0000,  0.0000,  0.0000)
  25 C      2.440000    9.861143    5.000000    ( 0.0000,  0.0000,  0.0000)
  26 C      3.660000   10.565510    5.000000    ( 0.0000,  0.0000,  0.0000)
  27 C      3.660000   11.974245    5.000000    ( 0.0000,  0.0000,  0.0000)
  28 C      2.440000   12.678612    5.000000    ( 0.0000,  0.0000,  0.0000)
  29 C      2.440000   14.087347    5.000000    ( 0.0000,  0.0000,  0.0000)
  30 C      3.660000   14.791714    5.000000    ( 0.0000,  0.0000,  0.0000)
  31 C      3.660000   16.200449    5.000000    ( 0.0000,  0.0000,  0.0000)
  32 C      4.880000    0.000000    5.000000    ( 0.0000,  0.0000,  0.0000)
  33 C      4.880000    1.408735    5.000000    ( 0.0000,  0.0000,  0.0000)
  34 C      6.100000    2.113102    5.000000    ( 0.0000,  0.0000,  0.0000)
  35 C      6.100000    3.521837    5.000000    ( 0.0000,  0.0000,  0.0000)
  36 C      4.880000    4.226204    5.000000    ( 0.0000,  0.0000,  0.0000)
  37 C      4.880000    5.634939    5.000000    ( 0.0000,  0.0000,  0.0000)
  38 C      6.100000    6.339306    5.000000    ( 0.0000,  0.0000,  0.0000)
  39 C      6.100000    7.748041    5.000000    ( 0.0000,  0.0000,  0.0000)
  40 C      4.880000    8.452408    5.000000    ( 0.0000,  0.0000,  0.0000)
  41 C      4.880000    9.861143    5.000000    ( 0.0000,  0.0000,  0.0000)
  42 C      6.100000   10.565510    5.000000    ( 0.0000,  0.0000,  0.0000)
  43 C      6.100000   11.974245    5.000000    ( 0.0000,  0.0000,  0.0000)
  44 C      4.880000   12.678612    5.000000    ( 0.0000,  0.0000,  0.0000)
  45 C      4.880000   14.087347    5.000000    ( 0.0000,  0.0000,  0.0000)
  46 C      6.100000   14.791714    5.000000    ( 0.0000,  0.0000,  0.0000)
  47 C      6.100000   16.200449    5.000000    ( 0.0000,  0.0000,  0.0000)
  48 C      7.320000    0.000000    5.000000    ( 0.0000,  0.0000,  0.0000)
  49 C      7.320000    1.408735    5.000000    ( 0.0000,  0.0000,  0.0000)
  50 C      8.540000    2.113102    5.000000    ( 0.0000,  0.0000,  0.0000)
  51 C      8.540000    3.521837    5.000000    ( 0.0000,  0.0000,  0.0000)
  52 C      7.320000    4.226204    5.000000    ( 0.0000,  0.0000,  0.0000)
  53 C      7.320000    5.634939    5.000000    ( 0.0000,  0.0000,  0.0000)
  54 C      8.540000    6.339306    5.000000    ( 0.0000,  0.0000,  0.0000)
  55 C      8.540000    7.748041    5.000000    ( 0.0000,  0.0000,  0.0000)
  56 C      7.320000    8.452408    5.000000    ( 0.0000,  0.0000,  0.0000)
  57 C      7.320000    9.861143    5.000000    ( 0.0000,  0.0000,  0.0000)
  58 C      8.540000   10.565510    5.000000    ( 0.0000,  0.0000,  0.0000)
  59 C      8.540000   11.974245    5.000000    ( 0.0000,  0.0000,  0.0000)
  60 C      7.320000   12.678612    5.000000    ( 0.0000,  0.0000,  0.0000)
  61 C      7.320000   14.087347    5.000000    ( 0.0000,  0.0000,  0.0000)
  62 C      8.540000   14.791714    5.000000    ( 0.0000,  0.0000,  0.0000)
  63 C      8.540000   16.200449    5.000000    ( 0.0000,  0.0000,  0.0000)

Unit cell:
           periodic     x           y           z      points  spacing
  1. axis:    yes    9.760000    0.000000    0.000000    48     0.2033
  2. axis:    yes    0.000000   16.904816    0.000000    84     0.2012
  3. axis:    yes    0.000000    0.000000   10.000000    48     0.2083

  Lengths:   9.760000  16.904816  10.000000
  Angles:   90.000000  90.000000  90.000000

Effective grid spacing dv^(1/3) = 0.2043

     iter     time        total  log10-change:
                         energy  eigst   dens
iter:   1 11:06:40  -684.284995
iter:   2 11:06:46  -689.648281  +0.29  -0.87
iter:   3 11:06:53  -694.805210  -0.26  -0.86
iter:   4 11:06:59  -673.999326  -0.07  -0.81
iter:   5 11:07:06  -674.697947  -0.86  -1.54
iter:   6 11:07:12  -674.548233  -1.44  -1.47
iter:   7 11:07:18  -672.851338  -1.30  -1.46
iter:   8 11:07:25  -672.764853  -1.65  -2.02
iter:   9 11:07:31  -672.760960c -2.42  -2.38
iter:  10 11:07:38  -672.749241c -2.59  -2.42
iter:  11 11:07:44  -672.750030c -3.16  -2.99
iter:  12 11:07:51  -672.749313c -3.62  -3.01
iter:  13 11:07:57  -672.749506c -3.95  -3.37
iter:  14 11:08:03  -672.749540c -4.49  -3.52
iter:  15 11:08:10  -672.749364c -4.75  -3.51
iter:  16 11:08:16  -672.749385c -5.27  -3.77
iter:  17 11:08:23  -672.749421c -5.51  -3.74
iter:  18 11:08:29  -672.749399c -5.20  -3.80
iter:  19 11:08:35  -672.749398c -5.99  -4.23c
iter:  20 11:08:42  -672.749396c -6.28  -4.28c
iter:  21 11:08:48  -672.749396c -6.81  -4.43c
iter:  22 11:08:54  -672.749396c -6.68  -4.46c
iter:  23 11:09:01  -672.749396c -6.95  -4.53c
iter:  24 11:09:07  -672.749396c -7.44c -4.67c

Converged after 24 iterations.

Dipole moment: (120.470582, 261.094555, 160.000000) |e|*Ang

Energy contributions relative to reference atoms: (reference = -56055.422770)

Kinetic:       -148.092676
Potential:      -35.274574
External:        +0.000000
XC:            -503.987643
Entropy (-ST):   -0.000795
Local:          +14.605896
Free energy:   -672.749793
Extrapolated:  -672.749396

 Band  Eigenvalues  Occupancy
    0    -39.35791    2.00000
    1    -39.01163    2.00000
    2    -39.01123    2.00000
    3    -38.32396    2.00000
    4    -38.32396    2.00000
    5    -37.98311    2.00000
    6    -37.98302    2.00000
    7    -37.98302    2.00000
    8    -37.98263    2.00000
    9    -37.98263    2.00000
   10    -37.98234    2.00000
   11    -36.97490    2.00000
   12    -36.97490    2.00000
   13    -36.97411    2.00000
   14    -36.97411    2.00000
   15    -36.31336    2.00000
   16    -36.31327    2.00000
   17    -35.36054    2.00000
   18    -35.35910    2.00000
   19    -35.35831    2.00000
   20    -35.35831    2.00000
   21    -35.35822    2.00000
   22    -35.35822    2.00000
   23    -35.05811    2.00000
   24    -35.05787    2.00000
   25    -35.05685    2.00000
   26    -35.05630    2.00000
   27    -34.48687    2.00000
   28    -34.48536    2.00000
   29    -34.47161    2.00000
   30    -33.60943    2.00000
   31    -33.60943    2.00000
   32    -33.48711    2.00000
   33    -33.46575    2.00000
   34    -33.46524    2.00000
   35    -32.80121    2.00000
   36    -32.80121    2.00000
   37    -32.36384    2.00000
   38    -32.36384    2.00000
   39    -32.36352    2.00000
   40    -32.36321    2.00000
   41    -31.17323    2.00000
   42    -31.17313    2.00000
   43    -31.07268    2.00000
   44    -31.07268    2.00000
   45    -31.07247    2.00000
   46    -31.07247    2.00000
   47    -31.05802    2.00000
   48    -31.05732    2.00000
   49    -30.26880    2.00000
   50    -30.26880    2.00000
   51    -29.65657    2.00000
   52    -29.65657    2.00000
   53    -29.65615    2.00000
   54    -29.65615    2.00000
   55    -29.56946    2.00000
   56    -29.56689    2.00000
   57    -29.55519    2.00000
   58    -29.55519    2.00000
   59    -29.55488    2.00000
[...]
  143    -15.22605    0.00000
  144    -15.22579    0.00000
  145    -14.21993    0.00000
  146    -14.21993    0.00000
  147    -14.21978    0.00000
  148    -14.21978    0.00000
  149    -12.52607    0.00000
  150    -12.52595    0.00000
  151    -12.52351    0.00000
  152    -12.52351    0.00000
  153    -12.52315    0.00000
  154    -12.52315    0.00000
  155    -12.23902    0.00000
  156    -11.82485    0.00000
  157    -11.82485    0.00000

Fermi level: -18.84938

Gap: 1.848 eV
Transition (v -> c):
  (s=0, k=0, n=127, [0.00, 0.00, 0.00]) -> (s=0, k=0, n=128, [0.00, 0.00, 0.00])
Writing to graphene_xas.gpw (mode='')