User:   austin@austinhoustonmacm1.nomads.utk.edu
Date:   Thu May  4 18:41:34 2023
Arch:   arm64
Pid:    25491
CWD:    /Users/austin/Desktop/dft_class/final_project
Python: 3.8.16
gpaw:   /Users/austin/tensorflow_env/env/lib/python3.8/site-packages/gpaw
_gpaw:  /Users/austin/tensorflow_env/env/lib/python3.8/site-packages/
        _gpaw.cpython-38-darwin.so
ase:    /Users/austin/tensorflow_env/env/lib/python3.8/site-packages/ase (version 3.22.1)
numpy:  /Users/austin/tensorflow_env/env/lib/python3.8/site-packages/numpy (version 1.23.2)
scipy:  /Users/austin/tensorflow_env/env/lib/python3.8/site-packages/scipy (version 1.9.1)
units:  Angstrom and eV
cores: 1
OpenMP: False
OMP_NUM_THREADS: 1

Input parameters:
  h: 0.2
  nbands: -30
  setups: {C: hch1s}

System changes: positions, numbers, cell, pbc, initial_charges, initial_magmoms

Initialize ...

species:
  C:  # (0.5 core hole)
    name: Carbon
    id: be8360b5b4bf2f97354f534adc6386b0
    Z: 6.0
    valence: 4
    core: 1.5
    charge: 0.5
    file: ./C.hch1s.LDA
    compensation charges: {type: gauss,
                           rc: 0.20,
                           lmax: 2}
    cutoffs: {filter: 1.14,
              core: 1.08}
    valence states:
      #              energy  rcut
      - 2s(2.00)   -20.949   0.635
      - 2p(2.00)   -12.509   0.635
      -  s           6.263   0.635
      -  p          14.702   0.635
      -  d           0.000   0.635

    # Using partial waves for C as LCAO basis

Reference energy: -3503.463923  # eV

Spin-paired calculation

Convergence criteria:
 Maximum [total energy] change in last 3 cyles: 0.0005 eV / electron
 Maximum integral of absolute [dens]ity change: 0.0001 electrons / valence electron
 Maximum integral of absolute [eigenst]ate change: 4e-08 eV^2 / valence electron
 Maximum number of scf [iter]ations: 333
 (Square brackets indicate name in SCF output, whereas a 'c' in
 the SCF output indicates the quantity has converged.)

Symmetries present (total): 4

  ( 1  0  0)  ( 1  0  0)  (-1  0  0)  (-1  0  0)
  ( 0  1  0)  ( 0  1  0)  ( 0  1  0)  ( 0  1  0)
  ( 0  0  1)  ( 0  0 -1)  ( 0  0  1)  ( 0  0 -1)

1 k-point (Gamma)
1 k-point in the irreducible part of the Brillouin zone
       k-points in crystal coordinates                weights
   0:     0.00000000    0.00000000    0.00000000          1/1

Occupation numbers: Fermi-Dirac:
  width: 0.1000  # eV

Eigensolver
   Davidson(niter=2)

Densities:
  Coarse grid: 12*20*40 grid
  Fine grid: 24*40*80 grid
  Total Charge: 2.000000

Density mixing:
  Method: separate
  Backend: pulay
  Linear mixing parameter: 0.05
  old densities: 5
  Damping of long wavelength oscillations: 50

Hamiltonian:
  XC and Coulomb potentials evaluated on a 24*40*80 grid
  Using the LDA Exchange-Correlation functional
  Interpolation: tri-quintic (5. degree polynomial)
  Poisson solver: FastPoissonSolver using
    Stencil: 6*3+1=19 point O(h^6) finite-difference Laplacian
    FFT axes: [0, 1, 2]
    FST axes: []

Total number of cores used: 1

Number of atoms: 4
Number of atomic orbitals: 16
Number of bands in calculation: 38
Number of valence electrons: 16
Bands to converge: occupied

... initialized

Initializing position-dependent things.

Density initialized from atomic densities
Creating initial wave functions:
  16 bands from LCAO basis set
  22 bands from random numbers

 |  | C   |
 |C |C    |
 C  |     |

Positions:
   0 C      0.000000    0.000000    4.000000    ( 0.0000,  0.0000,  0.0000)
   1 C      0.000000    1.408735    4.000000    ( 0.0000,  0.0000,  0.0000)
   2 C      1.220000    2.113102    4.000000    ( 0.0000,  0.0000,  0.0000)
   3 C      1.220000    3.521837    4.000000    ( 0.0000,  0.0000,  0.0000)

Unit cell:
           periodic     x           y           z      points  spacing
  1. axis:    yes    2.440000    0.000000    0.000000    12     0.2033
  2. axis:    yes    0.000000    4.226204    0.000000    20     0.2113
  3. axis:    yes    0.000000    0.000000    8.000000    40     0.2000

  Lengths:   2.440000   4.226204   8.000000
  Angles:   90.000000  90.000000  90.000000

Effective grid spacing dv^(1/3) = 0.2048

     iter     time        total  log10-change:
                         energy  eigst   dens
iter:   1 18:41:34   -44.841206
iter:   2 18:41:34   -44.797208  -0.00  -0.74
iter:   3 18:41:34   -43.761756  -0.03  -0.76
iter:   4 18:41:34   -43.426948  -1.20  -1.15
iter:   5 18:41:34   -43.421066  -1.89  -1.33
iter:   6 18:41:34   -43.209117  -1.28  -1.34
iter:   7 18:41:34   -43.209781  -2.05  -2.79
iter:   8 18:41:34   -43.209913c -2.71  -3.00
iter:   9 18:41:35   -43.209976c -3.30  -2.95
iter:  10 18:41:35   -43.209814c -3.98  -2.93
iter:  11 18:41:35   -43.209808c -4.59  -3.18
iter:  12 18:41:35   -43.209805c -5.08  -3.20
iter:  13 18:41:35   -43.209769c -5.19  -3.19
iter:  14 18:41:35   -43.209764c -5.29  -3.42
iter:  15 18:41:35   -43.209765c -5.62  -3.46
iter:  16 18:41:35   -43.209765c -6.27  -3.53
iter:  17 18:41:35   -43.209765c -6.16  -3.54
iter:  18 18:41:35   -43.209765c -6.78  -4.07c
iter:  19 18:41:35   -43.209765c -7.15  -4.19c
iter:  20 18:41:35   -43.209765c -7.41c -4.30c

Converged after 20 iterations.

Dipole moment: (0.160087, 3.314400, 8.000000) |e|*Ang

Energy contributions relative to reference atoms: (reference = -3503.463923)

Kinetic:         -8.114781
Potential:       -3.535383
External:        +0.000000
XC:             -32.539768
Entropy (-ST):   -0.000000
Local:           +0.980167
Free energy:    -43.209765
Extrapolated:   -43.209765

 Band  Eigenvalues  Occupancy
    0    -32.82453    2.00000
    1    -27.68125    2.00000
    2    -27.22628    2.00000
    3    -20.66085    2.00000
    4    -19.17822    2.00000
    5    -17.91935    2.00000
    6    -17.48205    2.00000
    7    -14.48029    2.00000
    8    -10.51123    0.00000
    9     -5.70173    0.00000
   10     -5.59295    0.00000
   11     -5.50672    0.00000
   12     -2.83754    0.00000
   13     -1.18160    0.00000
   14      1.76894    0.00000
   15      4.33493    0.00000
   16      4.38294    0.00000
   17      5.52097    0.00000
   18      6.82310    0.00000
   19      6.85889    0.00000
   20     10.92642    0.00000
   21     11.41579    0.00000
   22     13.29255    0.00000
   23     13.53187    0.00000
   24     13.60728    0.00000
   25     15.27207    0.00000
   26     16.79832    0.00000
   27     18.78390    0.00000
   28     19.63273    0.00000
   29     19.85462    0.00000
   30     21.22549    0.00000
   31     21.93569    0.00000
   32     21.97834    0.00000
   33     22.63720    0.00000
   34     24.49553    0.00000
   35     25.09675    0.00000
   36     25.23615    0.00000
   37     27.23781    0.00000

Fermi level: -12.49576

Gap: 3.969 eV
Transition (v -> c):
  (s=0, k=0, n=7, [0.00, 0.00, 0.00]) -> (s=0, k=0, n=8, [0.00, 0.00, 0.00])
Writing to graphene_xas.gpw (mode='')