User:   austin@Austins-MacBook-Pro-81.local
Date:   Sat May  6 11:12:11 2023
Arch:   arm64
Pid:    56938
CWD:    /Users/austin/Desktop/dft_class/final_project
Python: 3.8.16
gpaw:   /Users/austin/tensorflow_env/env/lib/python3.8/site-packages/gpaw
_gpaw:  /Users/austin/tensorflow_env/env/lib/python3.8/site-packages/
        _gpaw.cpython-38-darwin.so
ase:    /Users/austin/tensorflow_env/env/lib/python3.8/site-packages/ase (version 3.22.1)
numpy:  /Users/austin/tensorflow_env/env/lib/python3.8/site-packages/numpy (version 1.23.2)
scipy:  /Users/austin/tensorflow_env/env/lib/python3.8/site-packages/scipy (version 1.9.1)
units:  Angstrom and eV
cores: 1
OpenMP: False
OMP_NUM_THREADS: 1

Input parameters:
  charge: -1
  h: 0.2
  occupations: {fixmagmom: True,
                name: fermi-dirac,
                width: 0.0}
  setups: {0: fch1s}
  spinpol: True
  xc: PBE

System changes: positions, numbers, cell, pbc, initial_charges, initial_magmoms

Initialize ...

species:
  C:  # (1.0 core hole)
    name: Carbon
    id: f4944c0544631dfc06af2b77069fd044
    Z: 6.0
    valence: 4
    core: 1.0
    charge: 1.0
    file: ./C.fch1s.PBE
    compensation charges: {type: gauss,
                           rc: 0.20,
                           lmax: 2}
    cutoffs: {filter: 1.14,
              core: 1.01}
    valence states:
      #              energy  rcut
      - 2s(2.00)   -29.911   0.635
      - 2p(2.00)   -21.336   0.635
      -  s          -2.700   0.635
      -  p           5.875   0.635
      -  d           0.000   0.635

    # Using partial waves for C as LCAO basis

  C:
    name: Carbon
    id: 4aa54d4b901d75f77cc0ea3eec22967b
    Z: 6.0
    valence: 4
    core: 2
    charge: 0.0
    file: /Users/austin/gpaw-setups-0.9.20000/C.PBE.gz
    compensation charges: {type: gauss,
                           rc: 0.20,
                           lmax: 2}
    cutoffs: {filter: 1.14,
              core: 1.14}
    valence states:
      #              energy  rcut
      - 2s(2.00)   -13.751   0.635
      - 2p(2.00)    -5.284   0.635
      -  s          13.461   0.635
      -  p          21.927   0.635
      -  d           0.000   0.635

    # Using partial waves for C as LCAO basis

Reference energy: -65463.827509  # eV

Spin-polarized calculation.
Magnetic moment: 1.000000

Convergence criteria:
 Maximum [total energy] change in last 3 cyles: 0.0005 eV / electron
 Maximum integral of absolute [dens]ity change: 0.0001 electrons / valence electron
 Maximum integral of absolute [eigenst]ate change: 4e-08 eV^2 / valence electron
 Maximum number of scf [iter]ations: 333
 (Square brackets indicate name in SCF output, whereas a 'c' in
 the SCF output indicates the quantity has converged.)

Symmetries present (total): 4

  ( 1  0  0)  ( 1  0  0)  (-1  0  0)  (-1  0  0)
  ( 0  1  0)  ( 0  1  0)  ( 0  1  0)  ( 0  1  0)
  ( 0  0  1)  ( 0  0 -1)  ( 0  0  1)  ( 0  0 -1)

1 k-point (Gamma)
1 k-point in the irreducible part of the Brillouin zone
       k-points in crystal coordinates                weights
   0:     0.00000000    0.00000000    0.00000000          1/1

Occupation numbers: Fixed magnetic moment: 1.000
# Zero width

Eigensolver
   Davidson(niter=2)

Densities:
  Coarse grid: 48*84*48 grid
  Fine grid: 96*168*96 grid
  Total Charge: 0.000000

Density mixing:
  Method: difference
  Backend: pulay
  Linear mixing parameter: 0.05
  old densities: 5
  Damping of long wavelength oscillations: 50

Hamiltonian:
  XC and Coulomb potentials evaluated on a 96*168*96 grid
  Using the PBE Exchange-Correlation functional
  Interpolation: tri-quintic (5. degree polynomial)
  Poisson solver: FastPoissonSolver using
    Stencil: 6*3+1=19 point O(h^6) finite-difference Laplacian
    FFT axes: [0, 1, 2]
    FST axes: []

XC parameters: PBE with 2 nearest neighbor stencil

Total number of cores used: 1

Number of atoms: 64
Number of atomic orbitals: 256
Number of bands in calculation: 159
Number of valence electrons: 257
Bands to converge: occupied

... initialized

Initializing position-dependent things.

Density initialized from atomic densities
Creating initial wave functions:
  159 bands from LCAO basis set

     /     |  C     C     C     C  |
    /      | C     C     C     C   |
   /     C |   C     C     C       |
  /        C     C     C     C     |
 *     C  C| C  C  C  C  C  C      |
 |    C  C |C  C  C  C  C  C       |
 |      C  .--C-----C-----C--------.
 |  C     C     C     C           /
 |  C C  C  C  C  C   C C        /
 |C  C  C  C  C  C  C  C        /
 C     C     C     C           /

Positions:
   0 C      0.000000    0.000000    5.000000    ( 0.0000,  0.0000,  1.0000)
   1 C      0.000000    1.408735    5.000000    ( 0.0000,  0.0000,  0.0000)
   2 C      1.220000    2.113102    5.000000    ( 0.0000,  0.0000,  0.0000)
   3 C      1.220000    3.521837    5.000000    ( 0.0000,  0.0000,  0.0000)
   4 C      0.000000    4.226204    5.000000    ( 0.0000,  0.0000,  0.0000)
   5 C      0.000000    5.634939    5.000000    ( 0.0000,  0.0000,  0.0000)
   6 C      1.220000    6.339306    5.000000    ( 0.0000,  0.0000,  0.0000)
   7 C      1.220000    7.748041    5.000000    ( 0.0000,  0.0000,  0.0000)
   8 C      0.000000    8.452408    5.000000    ( 0.0000,  0.0000,  0.0000)
   9 C      0.000000    9.861143    5.000000    ( 0.0000,  0.0000,  0.0000)
  10 C      1.220000   10.565510    5.000000    ( 0.0000,  0.0000,  0.0000)
  11 C      1.220000   11.974245    5.000000    ( 0.0000,  0.0000,  0.0000)
  12 C      0.000000   12.678612    5.000000    ( 0.0000,  0.0000,  0.0000)
  13 C      0.000000   14.087347    5.000000    ( 0.0000,  0.0000,  0.0000)
  14 C      1.220000   14.791714    5.000000    ( 0.0000,  0.0000,  0.0000)
  15 C      1.220000   16.200449    5.000000    ( 0.0000,  0.0000,  0.0000)
  16 C      2.440000    0.000000    5.000000    ( 0.0000,  0.0000,  0.0000)
  17 C      2.440000    1.408735    5.000000    ( 0.0000,  0.0000,  0.0000)
  18 C      3.660000    2.113102    5.000000    ( 0.0000,  0.0000,  0.0000)
  19 C      3.660000    3.521837    5.000000    ( 0.0000,  0.0000,  0.0000)
  20 C      2.440000    4.226204    5.000000    ( 0.0000,  0.0000,  0.0000)
  21 C      2.440000    5.634939    5.000000    ( 0.0000,  0.0000,  0.0000)
  22 C      3.660000    6.339306    5.000000    ( 0.0000,  0.0000,  0.0000)
  23 C      3.660000    7.748041    5.000000    ( 0.0000,  0.0000,  0.0000)
  24 C      2.440000    8.452408    5.000000    ( 0.0000,  0.0000,  0.0000)
  25 C      2.440000    9.861143    5.000000    ( 0.0000,  0.0000,  0.0000)
  26 C      3.660000   10.565510    5.000000    ( 0.0000,  0.0000,  0.0000)
  27 C      3.660000   11.974245    5.000000    ( 0.0000,  0.0000,  0.0000)
  28 C      2.440000   12.678612    5.000000    ( 0.0000,  0.0000,  0.0000)
  29 C      2.440000   14.087347    5.000000    ( 0.0000,  0.0000,  0.0000)
  30 C      3.660000   14.791714    5.000000    ( 0.0000,  0.0000,  0.0000)
  31 C      3.660000   16.200449    5.000000    ( 0.0000,  0.0000,  0.0000)
  32 C      4.880000    0.000000    5.000000    ( 0.0000,  0.0000,  0.0000)
  33 C      4.880000    1.408735    5.000000    ( 0.0000,  0.0000,  0.0000)
  34 C      6.100000    2.113102    5.000000    ( 0.0000,  0.0000,  0.0000)
  35 C      6.100000    3.521837    5.000000    ( 0.0000,  0.0000,  0.0000)
  36 C      4.880000    4.226204    5.000000    ( 0.0000,  0.0000,  0.0000)
  37 C      4.880000    5.634939    5.000000    ( 0.0000,  0.0000,  0.0000)
  38 C      6.100000    6.339306    5.000000    ( 0.0000,  0.0000,  0.0000)
  39 C      6.100000    7.748041    5.000000    ( 0.0000,  0.0000,  0.0000)
  40 C      4.880000    8.452408    5.000000    ( 0.0000,  0.0000,  0.0000)
  41 C      4.880000    9.861143    5.000000    ( 0.0000,  0.0000,  0.0000)
  42 C      6.100000   10.565510    5.000000    ( 0.0000,  0.0000,  0.0000)
  43 C      6.100000   11.974245    5.000000    ( 0.0000,  0.0000,  0.0000)
  44 C      4.880000   12.678612    5.000000    ( 0.0000,  0.0000,  0.0000)
  45 C      4.880000   14.087347    5.000000    ( 0.0000,  0.0000,  0.0000)
  46 C      6.100000   14.791714    5.000000    ( 0.0000,  0.0000,  0.0000)
  47 C      6.100000   16.200449    5.000000    ( 0.0000,  0.0000,  0.0000)
  48 C      7.320000    0.000000    5.000000    ( 0.0000,  0.0000,  0.0000)
  49 C      7.320000    1.408735    5.000000    ( 0.0000,  0.0000,  0.0000)
  50 C      8.540000    2.113102    5.000000    ( 0.0000,  0.0000,  0.0000)
  51 C      8.540000    3.521837    5.000000    ( 0.0000,  0.0000,  0.0000)
  52 C      7.320000    4.226204    5.000000    ( 0.0000,  0.0000,  0.0000)
  53 C      7.320000    5.634939    5.000000    ( 0.0000,  0.0000,  0.0000)
  54 C      8.540000    6.339306    5.000000    ( 0.0000,  0.0000,  0.0000)
  55 C      8.540000    7.748041    5.000000    ( 0.0000,  0.0000,  0.0000)
  56 C      7.320000    8.452408    5.000000    ( 0.0000,  0.0000,  0.0000)
  57 C      7.320000    9.861143    5.000000    ( 0.0000,  0.0000,  0.0000)
  58 C      8.540000   10.565510    5.000000    ( 0.0000,  0.0000,  0.0000)
  59 C      8.540000   11.974245    5.000000    ( 0.0000,  0.0000,  0.0000)
  60 C      7.320000   12.678612    5.000000    ( 0.0000,  0.0000,  0.0000)
  61 C      7.320000   14.087347    5.000000    ( 0.0000,  0.0000,  0.0000)
  62 C      8.540000   14.791714    5.000000    ( 0.0000,  0.0000,  0.0000)
  63 C      8.540000   16.200449    5.000000    ( 0.0000,  0.0000,  0.0000)

Unit cell:
           periodic     x           y           z      points  spacing
  1. axis:    yes    9.760000    0.000000    0.000000    48     0.2033
  2. axis:    yes    0.000000   16.904816    0.000000    84     0.2012
  3. axis:    yes    0.000000    0.000000   10.000000    48     0.2083

  Lengths:   9.760000  16.904816  10.000000
  Angles:   90.000000  90.000000  90.000000

Effective grid spacing dv^(1/3) = 0.2043

     iter     time        total  log10-change:  magmom
                         energy  eigst   dens
iter:   1 11:12:35  -654.805680                  +1.0056
iter:   2 11:12:50  -647.885777  +0.11  -0.79    +1.0017
iter:   3 11:13:04  -632.748664  -0.19  -0.80    +0.9998
iter:   4 11:13:19  -618.346619  -0.14  -0.87    +1.0001
iter:   5 11:13:33  -610.789953  -0.17  -1.03    +1.0000
iter:   6 11:13:47  -611.810763  -0.36  -1.54    +1.0000
iter:   7 11:14:02  -610.728219  -0.95  -1.59    +1.0000
iter:   8 11:14:16  -610.793546  -1.18  -1.84    +1.0000
iter:   9 11:14:31  -610.716667c -1.55  -1.94    +1.0000
iter:  10 11:14:45  -610.631822  -1.90  -2.14    +1.0000
iter:  11 11:14:59  -610.610414c -2.36  -2.52    +1.0000
iter:  12 11:15:14  -610.596426c -2.75  -2.59    +1.0000
iter:  13 11:15:28  -610.595381c -3.02  -2.78    +1.0000
iter:  14 11:15:43  -610.592827c -3.27  -2.81    +1.0000
iter:  15 11:15:57  -610.592619c -3.65  -3.05    +1.0000
iter:  16 11:16:12  -610.592309c -3.79  -3.09    +1.0000
iter:  17 11:16:27  -610.592147c -4.19  -3.15    +1.0000
iter:  18 11:16:41  -610.592109c -4.55  -3.25    +1.0000
iter:  19 11:16:55  -610.592246c -4.58  -3.44    +1.0000
iter:  20 11:17:10  -610.592199c -5.49  -3.70    +1.0000
iter:  21 11:17:24  -610.592160c -5.32  -3.76    +1.0000
iter:  22 11:17:38  -610.592162c -5.81  -4.05c   +1.0000
iter:  23 11:17:53  -610.592159c -5.58  -4.16c   +1.0000
iter:  24 11:18:07  -610.592157c -5.84  -4.23c   +1.0000
iter:  25 11:18:21  -610.592156c -6.32  -4.28c   +1.0000
iter:  26 11:18:35  -610.592155c -6.49  -4.51c   +1.0000
iter:  27 11:18:50  -610.592155c -6.50  -4.72c   +1.0000
iter:  28 11:19:04  -610.592155c -7.11  -4.78c   +1.0000
iter:  29 11:19:18  -610.592155c -7.26  -4.87c   +1.0000
iter:  30 11:19:32  -610.592155c -7.40c -5.06c   +1.0000

Converged after 30 iterations.

Dipole moment: (-31.822096, -7.981929, 0.000000) |e|*Ang

Total magnetic moment: (0.000000, 0.000000, 1.000000)
Local magnetic moments:
   0 C  ( 0.000000,  0.000000, -0.076770)
   1 C  ( 0.000000,  0.000000,  0.014097)
   2 C  ( 0.000000,  0.000000,  0.007497)
   3 C  ( 0.000000,  0.000000,  0.003014)
   4 C  ( 0.000000,  0.000000,  0.009172)
   5 C  ( 0.000000,  0.000000,  0.010779)
   6 C  ( 0.000000,  0.000000,  0.003076)
   7 C  ( 0.000000,  0.000000,  0.005284)
   8 C  ( 0.000000,  0.000000,  0.004978)
   9 C  ( 0.000000,  0.000000,  0.014708)
  10 C  ( 0.000000,  0.000000, -0.000065)
  11 C  ( 0.000000,  0.000000,  0.014905)
  12 C  ( 0.000000,  0.000000, -0.002179)
  13 C  ( 0.000000,  0.000000,  0.045084)
  14 C  ( 0.000000,  0.000000, -0.002484)
  15 C  ( 0.000000,  0.000000,  0.055096)
  16 C  ( 0.000000,  0.000000, -0.006848)
  17 C  ( 0.000000,  0.000000,  0.016032)
  18 C  ( 0.000000,  0.000000, -0.001819)
  19 C  ( 0.000000,  0.000000,  0.001650)
  20 C  ( 0.000000,  0.000000, -0.001157)
  21 C  ( 0.000000,  0.000000, -0.000281)
  22 C  ( 0.000000,  0.000000,  0.001220)
  23 C  ( 0.000000,  0.000000,  0.002706)
  24 C  ( 0.000000,  0.000000, -0.001605)
  25 C  ( 0.000000,  0.000000,  0.000627)
  26 C  ( 0.000000,  0.000000, -0.000492)
  27 C  ( 0.000000,  0.000000,  0.005544)
  28 C  ( 0.000000,  0.000000, -0.002997)
  29 C  ( 0.000000,  0.000000,  0.002256)
  30 C  ( 0.000000,  0.000000, -0.002298)
  31 C  ( 0.000000,  0.000000,  0.010290)
  32 C  ( 0.000000,  0.000000, -0.002425)
  33 C  ( 0.000000,  0.000000,  0.036603)
  34 C  ( 0.000000,  0.000000, -0.001819)
  35 C  ( 0.000000,  0.000000,  0.001650)
  36 C  ( 0.000000,  0.000000,  0.006602)
  37 C  ( 0.000000,  0.000000,  0.001831)
  38 C  ( 0.000000,  0.000000,  0.001220)
  39 C  ( 0.000000,  0.000000,  0.002706)
  40 C  ( 0.000000,  0.000000,  0.002199)
  41 C  ( 0.000000,  0.000000,  0.009709)
  42 C  ( 0.000000,  0.000000, -0.000492)
  43 C  ( 0.000000,  0.000000,  0.005544)
  44 C  ( 0.000000,  0.000000,  0.002745)
  45 C  ( 0.000000,  0.000000,  0.016578)
  46 C  ( 0.000000,  0.000000, -0.002298)
  47 C  ( 0.000000,  0.000000,  0.010290)
  48 C  ( 0.000000,  0.000000, -0.006848)
  49 C  ( 0.000000,  0.000000,  0.016032)
  50 C  ( 0.000000,  0.000000,  0.007497)
  51 C  ( 0.000000,  0.000000,  0.003014)
  52 C  ( 0.000000,  0.000000, -0.001157)
  53 C  ( 0.000000,  0.000000, -0.000281)
  54 C  ( 0.000000,  0.000000,  0.003076)
  55 C  ( 0.000000,  0.000000,  0.005284)
  56 C  ( 0.000000,  0.000000, -0.001605)
  57 C  ( 0.000000,  0.000000,  0.000627)
  58 C  ( 0.000000,  0.000000, -0.000065)
  59 C  ( 0.000000,  0.000000,  0.014905)
  60 C  ( 0.000000,  0.000000, -0.002997)
  61 C  ( 0.000000,  0.000000,  0.002256)
  62 C  ( 0.000000,  0.000000, -0.002484)
  63 C  ( 0.000000,  0.000000,  0.055096)

Energy contributions relative to reference atoms: (reference = -65463.827509)

Kinetic:       +660.171112
Potential:     -670.967027
External:        +0.000000
XC:            -610.178683
Entropy (-ST):   +0.000000
Local:          +10.382444
Free energy:   -610.592155
Extrapolated:  -610.592155

Spin contamination: 0.206246 electrons
                   Up                     Down
 Band  Eigenvalues  Occupancy  Eigenvalues  Occupancy
    0    -21.12709    1.00000    -21.46022    1.00000
    1    -20.11755    1.00000    -20.13736    1.00000
    2    -20.00565    1.00000    -19.98693    1.00000
    3    -19.66688    1.00000    -19.70105    1.00000
    4    -19.42766    1.00000    -19.40785    1.00000
    5    -19.03059    1.00000    -19.02617    1.00000
    6    -18.98243    1.00000    -18.96387    1.00000
    7    -18.89779    1.00000    -18.88915    1.00000
    8    -18.87642    1.00000    -18.86602    1.00000
    9    -18.83958    1.00000    -18.82268    1.00000
   10    -18.83219    1.00000    -18.80739    1.00000
   11    -17.98290    1.00000    -18.01572    1.00000
   12    -17.85576    1.00000    -17.84191    1.00000
   13    -17.84166    1.00000    -17.83613    1.00000
   14    -17.79984    1.00000    -17.78418    1.00000
   15    -17.17850    1.00000    -17.18528    1.00000
   16    -17.11392    1.00000    -17.10284    1.00000
   17    -16.49574    1.00000    -16.55111    1.00000
   18    -16.33359    1.00000    -16.33827    1.00000
   19    -16.13702    1.00000    -16.13253    1.00000
   20    -16.05086    1.00000    -16.03924    1.00000
   21    -16.03504    1.00000    -16.01239    1.00000
   22    -16.02187    1.00000    -16.01025    1.00000
   23    -15.70848    1.00000    -15.69642    1.00000
   24    -15.70132    1.00000    -15.69063    1.00000
   25    -15.65252    1.00000    -15.63328    1.00000
   26    -15.64761    1.00000    -15.63190    1.00000
   27    -15.06670    1.00000    -15.06919    1.00000
   28    -15.01745    1.00000    -15.00507    1.00000
   29    -15.00779    1.00000    -14.98960    1.00000
   30    -14.27831    1.00000    -14.31619    1.00000
   31    -14.20034    1.00000    -14.22655    1.00000
   32    -14.18593    1.00000    -14.18372    1.00000
   33    -14.04395    1.00000    -14.03651    1.00000
   34    -14.03347    1.00000    -14.01650    1.00000
   35    -13.39871    1.00000    -13.41014    1.00000
   36    -13.25569    1.00000    -13.24043    1.00000
   37    -12.93314    1.00000    -12.96689    1.00000
   38    -12.91698    1.00000    -12.92790    1.00000
   39    -12.77483    1.00000    -12.76829    1.00000
   40    -12.76548    1.00000    -12.75220    1.00000
   41    -11.69501    1.00000    -11.74961    1.00000
   42    -11.56134    1.00000    -11.65246    1.00000
   43    -11.56087    1.00000    -11.57106    1.00000
   44    -11.33768    1.00000    -11.33102    1.00000
   45    -11.29455    1.00000    -11.28460    1.00000
   46    -11.26051    1.00000    -11.25097    1.00000
   47    -11.20514    1.00000    -11.19275    1.00000
   48    -11.18472    1.00000    -11.16140    1.00000
   49    -10.77785    1.00000    -10.80787    1.00000
   50    -10.66068    1.00000    -10.67334    1.00000
   51    -10.09389    1.00000    -10.14776    1.00000
   52    -10.06696    1.00000    -10.09727    1.00000
   53     -9.83484    1.00000     -9.83137    1.00000
   54     -9.81001    1.00000     -9.79611    1.00000
   55     -9.76223    1.00000     -9.74611    1.00000
   56     -9.74458    1.00000     -9.72883    1.00000
   57     -9.70005    1.00000     -9.69047    1.00000
   58     -9.66606    1.00000     -9.65147    1.00000
   59     -9.65275    1.00000     -9.64521    1.00000
[...]
  144      2.93946    0.00000      2.94825    0.00000
  145      2.94875    0.00000      2.95683    0.00000
  146      3.15444    0.00000      3.19391    0.00000
  147      3.24163    0.00000      3.30170    0.00000
  148      3.94144    0.00000      3.95071    0.00000
  149      3.97766    0.00000      3.98930    0.00000
  150      3.99326    0.00000      3.99659    0.00000
  151      4.45339    0.00000      4.47534    0.00000
  152      4.48955    0.00000      4.49474    0.00000
  153      4.56015    0.00000      4.57750    0.00000
  154      4.56574    0.00000      4.57827    0.00000
  155      4.68746    0.00000      4.72493    0.00000
  156      4.69467    0.00000      4.74975    0.00000
  157      4.72120    0.00000      4.78130    0.00000
  158      5.96644    0.00000      6.04610    0.00000

Fermi levels: 0.16660, -0.76729